(set-option :produce-models true)
(set-logic QF_UF)
(declare-fun p48() Bool)
(declare-fun p57() Bool)
(declare-fun p45() Bool)
(declare-fun p23() Bool)
(declare-fun p56() Bool)
(declare-fun p51() Bool)
(declare-fun p31() Bool)
(declare-fun p0() Bool)
(declare-fun p5() Bool)
(declare-fun p50() Bool)
(declare-fun p29() Bool)
(declare-fun p59() Bool)
(declare-fun p32() Bool)
(declare-fun p36() Bool)
(declare-fun p40() Bool)
(declare-fun p13() Bool)
(declare-fun p12() Bool)
(declare-fun p8() Bool)
(declare-fun p47() Bool)
(declare-fun p11() Bool)
(declare-fun p25() Bool)
(declare-fun p37() Bool)
(declare-fun p34() Bool)
(declare-fun p19() Bool)
(declare-fun p30() Bool)
(declare-fun p7() Bool)
(declare-fun p20() Bool)
(declare-fun p54() Bool)
(declare-fun p27() Bool)
(declare-fun p1() Bool)
(declare-fun p6() Bool)
(declare-fun p24() Bool)
(declare-fun p35() Bool)
(declare-fun p15() Bool)
(declare-fun p44() Bool)
(declare-fun p4() Bool)
(declare-fun p10() Bool)
(declare-fun p53() Bool)
(declare-fun p22() Bool)
(declare-fun p39() Bool)
(declare-fun p3() Bool)
(declare-fun p26() Bool)
(declare-fun p18() Bool)
(declare-fun p28() Bool)
(declare-fun p42() Bool)
(declare-fun p17() Bool)
(declare-fun p43() Bool)
(declare-fun p33() Bool)
(declare-fun p55() Bool)
(declare-fun p58() Bool)
(declare-fun p2() Bool)
(declare-fun p38() Bool)
(declare-fun p49() Bool)
(declare-fun p41() Bool)
(declare-fun p16() Bool)
(declare-fun p21() Bool)
(declare-fun p9() Bool)
(declare-fun p14() Bool)
(declare-fun p52() Bool)
(declare-fun p46() Bool)
(assert
(and (or p48 (not p57) (not p45)) (or p23 (not p56) p51) (or p31 (not p0) (not p5)) (or (not p50) (not p29) p59) (or (not p32) p23 (not p36)) (or (not p40) p13 (not p12)) (or p8 (not p59) p31) (or p47 p11 p59) (or (not p25) p36 p37) (or p34 p32 p37) (or p5 (not p23) p32) (or (not p19) (not p36) p0) (or p30 p7 p50) (or p20 (not p20) p54) (or p27 (not p1) (not p6)) (or (not p32) (not p19) p1) (or (not p24) (not p35) p15) (or p44 p34 (not p6)) (or p4 p10 p53) (or (not p27) p22 (not p45)) (or p53 p39 (not p3)) (or (not p12) (not p26) p13) (or (not p18) (not p20) (not p28)) (or (not p5) (not p27) p56) (or (not p40) p42 (not p0)) (or p22 (not p42) p17) (or p43 p33 p34) (or (not p55) p6 (not p45)) (or p25 (not p47) (not p58)) (or (not p2) p29 p27) (or p2 p38 p49) (or p41 p56 (not p7)) (or (not p40) p45 p4) (or p7 p27 p29) (or p33 (not p15) (not p35)) (or (not p24) p22 p24) (or (not p12) (not p57) (not p7)) (or p0 p45 (not p10)) (or p16 p23 (not p25)) (or p7 (not p7) (not p27)) (or (not p34) (not p58) (not p51)) (or (not p5) p0 p54) (or (not p47) p50 p42) (or (not p59) p16 (not p10)) (or p25 (not p32) p59) (or p32 (not p58) (not p19)) (or (not p20) p38 p44) (or (not p38) (not p13) (not p1)) (or (not p40) p4 p57) (or (not p21) p24 (not p5)) (or (not p32) p39 p58) (or p11 (not p49) p42) (or p32 p28 (not p40)) (or p50 (not p9) (not p45)) (or p48 p4 (not p53)) (or (not p22) (not p31) (not p44)) (or (not p55) (not p34) p31) (or (not p14) p28 (not p51)) (or (not p59) (not p35) (not p12)) (or (not p25) p52 p47) (or p17 (not p43) p47) (or p37 p26 (not p42)) (or p35 p13 p8) (or (not p31) (not p22) p45) (or (not p42) p23 p44) (or p29 (not p38) (not p4)) (or p5 (not p20) (not p45)) (or p5 p39 (not p0)) (or p13 p31 (not p1)) (or p12 (not p13) p16) (or p55 (not p5) p41) (or (not p40) p10 (not p5)) (or p10 p12 p42) (or p36 p30 (not p39)) (or p21 p58 (not p46)) (or p16 (not p51) p10) (or p32 (not p15) p3) (or p49 p23 p40) (or (not p43) p5 p26) (or p15 p45 (not p37)) (or p9 (not p57) p19) (or p14 (not p40) p23) (or (not p3) (not p3) (not p8)) (or (not p38) (not p10) p7) (or p30 p14 (not p2)) (or p19 p53 p52) (or (not p42) p12 p34) (or (not p50) (not p52) (not p11)) (or (not p26) p49 (not p13)) (or p48 (not p51) p3) (or (not p45) p52 (not p30)) (or p33 p2 p35) (or (not p23) p56 p5) (or (not p58) (not p51) (not p8)) (or (not p55) (not p39) p5) (or p3 (not p55) (not p2)) (or p17 p54 (not p3)) (or (not p55) (not p5) (not p29)) (or (not p10) (not p30) (not p35)) (or p43 (not p22) p34) (or p3 p29 p18) (or (not p56) p56 p35) (or p52 p22 (not p41)) (or p18 p32 (not p5)) (or p44 p47 p50) (or (not p0) (not p56) p37) (or p19 p27 p6) (or p2 p55 p34) (or p3 p24 (not p13)) (or p1 p31 (not p5)) (or (not p4) p53 p9) (or (not p5) p54 (not p14)) (or p55 p10 (not p1)) (or p5 (not p38) (not p29)) (or (not p21) p51 (not p59)) (or (not p18) (not p35) p52) (or (not p35) p5 (not p46)) (or p30 (not p55) p19) (or p53 p53 p49) (or p42 (not p13) p47) (or (not p29) p58 (not p30)) (or (not p47) (not p3) p53) (or p58 p35 (not p53)) (or p55 p8 p59) (or p22 (not p24) p6) (or p36 p40 p47) (or p7 p29 p32) (or (not p30) p47 (not p2)) (or p22 p51 p55) (or (not p19) p5 p31) (or p20 (not p30) (not p24)) (or (not p50) p36 (not p26)) (or (not p54) p41 p55) (or p25 p47 (not p51)) (or (not p47) (not p15) p11) (or p57 (not p12) p39) (or (not p32) (not p58) p26) (or (not p11) p18 (not p51)) (or p21 p20 (not p52)) (or p20 p58 p32) (or (not p38) (not p51) (not p30)) (or (not p12) p34 (not p26)) (or p26 p20 p16) (or p59 (not p29) (not p51)) (or p19 p18 p39) (or p48 p14 p59) (or (not p18) (not p17) p25) (or p33 (not p17) p18) (or p14 p46 p31) (or (not p40) (not p30) (not p24)) (or p29 (not p48) p4) (or p8 (not p31) (not p22)) (or p29 (not p35) p45) (or p37 p52 p50) (or p5 (not p29) p17) (or (not p41) (not p51) (not p58)) (or p59 p49 p17) (or (not p52) (not p19) p5) (or (not p27) p8 (not p6)) (or (not p46) (not p0) (not p0)) (or p7 (not p42) p49) (or p11 p1 (not p7)) (or p7 (not p39) p56) (or (not p36) p6 p40) (or (not p10) (not p56) p7) (or (not p38) p50 p5) (or p54 p46 (not p26)) (or p2 (not p2) p19) (or p30 p50 p48) (or (not p46) p46 p17) (or p19 p49 (not p36)) (or p32 p10 p4) (or (not p0) (not p4) (not p45)) (or (not p35) (not p59) p11) (or (not p30) p41 (not p43)) (or p38 p46 (not p33)) (or p8 (not p10) (not p32)) (or p25 (not p13) (not p52)) (or p18 p4 (not p4)) (or p52 (not p25) p48) (or (not p49) (not p39) (not p9)) (or (not p4) p32 (not p28)) (or p37 p27 (not p2)) (or (not p10) p9 p57) (or (not p1) (not p49) p48) (or p5 (not p51) p33) (or p22 p57 p10) (or p1 (not p25) (not p32)) (or (not p39) p5 p27) (or (not p57) p14 (not p16)) (or p46 p42 (not p33)) (or (not p53) (not p0) (not p26)) (or (not p51) p50 p37) (or (not p25) p30 (not p21)) (or (not p16) (not p49) (not p49)) (or p7 p6 p8) (or (not p54) p35 p39) (or (not p0) (not p41) (not p27)) (or (not p39) (not p40) (not p14)) (or (not p4) (not p55) (not p4)) (or p27 (not p14) (not p2)) (or p49 p18 p53) (or (not p50) p3 (not p55)) (or (not p44) p57 p28) (or (not p47) (not p35) (not p18)) (or (not p29) (not p51) p40) (or (not p36) p56 (not p38)) (or (not p13) p8 (not p57)) (or (not p54) p26 p18) (or (not p58) (not p46) (not p21)) (or (not p5) (not p29) p49) (or p22 (not p57) (not p46)) (or (not p55) p10 p57) (or (not p31) p7 (not p48)) (or (not p30) p23 p31) (or (not p23) (not p4) (not p43)) (or (not p34) p3 p13) (or p27 (not p43) p27) (or p1 (not p55) (not p27)) (or p52 (not p15) (not p18)) (or (not p48) (not p42) (not p18)) (or p52 p46 (not p50)) (or (not p45) p24 p11) (or (not p19) (not p27) (not p30)) (or (not p51) p44 (not p59)) (or p0 p34 (not p36)) (or p1 p9 (not p33)) (or p0 p22 p11) (or (not p52) p1 (not p18)) (or (not p31) (not p32) (not p34)) (or p35 (not p41) p31) (or (not p51) (not p15) p43) (or p59 p44 (not p21)) (or p52 (not p5) p12) (or (not p24) p29 p13) (or (not p1) (not p22) (not p38)) (or (not p2) (not p41) p14) (or (not p15) (not p10) (not p21)) (or (not p47) (not p32) p29) (or (not p32) (not p44) p33) (or (not p14) p53 (not p15)) (or p14 p29 (not p29)) (or (not p16) p58 (not p39)) (or p29 (not p43) p36) (or p47 p10 (not p39)) (or (not p56) p40 p42) (or p39 (not p51) (not p59)) (or p56 p47 p2) (or (not p31) (not p7) (not p57)) (or (not p50) (not p20) (not p16)) (or p46 p52 p48) (or p54 (not p5) (not p47)))
)
(check-sat)
(get-model)
